Instance: E121-07c.dat
Class:  2
  120 --- number of customers (no depot)
   23 --- number of vehicles
  183 --- number of items
Capacity - height - width of vehicles
   200     40     20
Node - x - y - demand
    0    10.0    45.0     0.0
    1    25.0     1.0    25.0
    2    25.0     3.0     7.0
    3    31.0     5.0    13.0
    4    32.0     5.0     6.0
    5    31.0     7.0    14.0
    6    32.0     9.0     5.0
    7    34.0     9.0    11.0
    8    46.0     9.0    19.0
    9    35.0     7.0     5.0
   10    34.0     6.0    15.0
   11    35.0     5.0    15.0
   12    47.0     6.0    17.0
   13    40.0     5.0    13.0
   14    39.0     3.0    12.0
   15    36.0     3.0    18.0
   16    73.0     6.0    13.0
   17    73.0     8.0    18.0
   18    24.0    36.0    12.0
   19    76.0     6.0    17.0
   20    76.0    10.0     4.0
   21    76.0    13.0     7.0
   22    78.0     3.0    12.0
   23    78.0     9.0    13.0
   24    79.0     3.0     8.0
   25    79.0     5.0    16.0
   26    79.0    11.0    15.0
   27    82.0     3.0     6.0
   28    82.0     7.0     5.0
   29    90.0    15.0     9.0
   30    84.0     3.0    11.0
   31    84.0     5.0    10.0
   32    84.0     9.0     3.0
   33    85.0     1.0     7.0
   34    87.0     5.0     2.0
   35    85.0     8.0     4.0
   36    87.0     7.0     4.0
   37    86.0    41.0    18.0
   38    86.0    44.0    14.0
   39    86.0    46.0    12.0
   40    85.0    55.0    17.0
   41    89.0    43.0    20.0
   42    89.0    46.0    14.0
   43    89.0    52.0    16.0
   44    92.0    42.0    10.0
   45    92.0    52.0     9.0
   46    94.0    42.0    11.0
   47    94.0    44.0     7.0
   48    94.0    48.0    13.0
   49    96.0    42.0     5.0
   50    99.0    46.0     4.0
   51    99.0    50.0    21.0
   52    83.0    80.0    13.0
   53    83.0    83.0    11.0
   54    85.0    81.0    12.0
   55    85.0    85.0    14.0
   56    85.0    89.0    10.0
   57    87.0    80.0     8.0
   58    87.0    86.0    16.0
   59    90.0    77.0    19.0
   60    90.0    88.0     5.0
   61    93.0    82.0    17.0
   62    93.0    84.0     7.0
   63    93.0    89.0    16.0
   64    94.0    86.0    14.0
   65    95.0    80.0    17.0
   66    99.0    89.0    13.0
   67    37.0    83.0    17.0
   68    50.0    80.0    13.0
   69    35.0    85.0    14.0
   70    35.0    87.0    16.0
   71    44.0    86.0     7.0
   72    46.0    89.0    13.0
   73    46.0    83.0     9.0
   74    46.0    87.0    11.0
   75    46.0    89.0    35.0
   76    48.0    83.0     5.0
   77    50.0    85.0    28.0
   78    50.0    88.0     7.0
   79    54.0    86.0     3.0
   80    54.0    90.0    10.0
   81    10.0    35.0     7.0
   82    10.0    40.0    12.0
   83    18.0    30.0    11.0
   84    17.0    35.0    10.0
   85    16.0    38.0     8.0
   86    14.0    40.0    11.0
   87    15.0    42.0    21.0
   88    11.0    42.0     4.0
   89    18.0    40.0    15.0
   90    21.0    39.0    16.0
   91    20.0    40.0     4.0
   92    18.0    41.0    16.0
   93    20.0    44.0     7.0
   94    22.0    44.0    10.0
   95    16.0    45.0     9.0
   96    20.0    45.0    11.0
   97    25.0    45.0    17.0
   98    30.0    55.0    12.0
   99    20.0    50.0    11.0
  100    22.0    51.0     7.0
  101    18.0    49.0     9.0
  102    16.0    48.0    11.0
  103    20.0    55.0    12.0
  104    18.0    53.0     7.0
  105    14.0    50.0     8.0
  106    15.0    51.0     6.0
  107    16.0    54.0     5.0
  108    28.0    33.0    12.0
  109    33.0    38.0    13.0
  110    30.0    50.0     7.0
  111    13.0    40.0     7.0
  112    15.0    36.0     8.0
  113    18.0    31.0    11.0
  114    25.0    37.0    13.0
  115    30.0    46.0    11.0
  116    25.0    52.0    10.0
  117    16.0    33.0     7.0
  118    25.0    35.0     4.0
  119     5.0    40.0    20.0
  120     5.0    50.0    13.0
Node - number of items - h - w for each item
    0   0
    1   2   20    6   25    3
    2   1   33    2
    3   1   10    6
    4   1    5   12
    5   2    7   15    4    9
    6   2   23    4   22    3
    7   2    5    8   34    4
    8   1    4   14
    9   1    5   11
   10   1    5    9
   11   1   30    4
   12   2    5   13   17    4
   13   2    7   18   19    8
   14   2   25    4   22    3
   15   1   29    2
   16   2    5   11   20    8
   17   2    6   15    6   14
   18   2    8   12   18    2
   19   2   24    4   19    4
   20   2   17    8   29    2
   21   1   17    2
   22   1   16    5
   23   2    4   16    8   10
   24   2   13    9   23    3
   25   1   17    5
   26   2   16   10    8    9
   27   2   13    9   31    3
   28   2   34    4   25    2
   29   2    5   14    7   10
   30   1   34    2
   31   2    7   17   16    7
   32   2   15    8   18    4
   33   1   31    4
   34   1    7   12
   35   2    6   11   25    2
   36   1   14    6
   37   1   25    4
   38   2    4   12   18    3
   39   2   16    9   34    3
   40   1    8   10
   41   2   13    6   27    4
   42   2    4    9   18    3
   43   2    7   12   26    4
   44   2   15    8   15    8
   45   1   13    8
   46   2   15    5   22    3
   47   2    5   10   29    2
   48   2    8    7   11    6
   49   2   17    5   17    2
   50   1   21    4
   51   2    5   10    9    5
   52   1   10   10
   53   2    4   16   19    5
   54   1   17    7
   55   2   19    8   18    3
   56   1    8   11
   57   2   12    6   17    3
   58   1   32    3
   59   1   13    7
   60   1   14    9
   61   2    5   14   13    4
   62   2   13    9   23    4
   63   1    6   18
   64   2   15    8   23    3
   65   2    8   11    5   11
   66   1   16    8
   67   1   19    6
   68   1    8    8
   69   2    6    8   22    3
   70   1   13    8
   71   1   21    3
   72   1   19    2
   73   2   35    4   25    4
   74   2    5   12   17    7
   75   1   11    4
   76   1    6   16
   77   2    9    7   23    4
   78   2   13    7   36    2
   79   1   32    2
   80   1   26    3
   81   2   15   10   13    8
   82   2    9   10   22    3
   83   1    9    9
   84   1    6    9
   85   1   27    2
   86   2    9    7   18    3
   87   1   17    4
   88   2    7   16    7   12
   89   1   25    3
   90   2    7   18    7   11
   91   1   14    7
   92   1   26    3
   93   1   16    7
   94   1   24    4
   95   1    6    8
   96   1    9    8
   97   1   20    2
   98   1   15    9
   99   2   23    4   17    2
  100   1   16    8
  101   1    5   11
  102   2    7    9   27    4
  103   2   19    8   18    7
  104   2   14   10   18    8
  105   1   14    9
  106   1    5   10
  107   2    7   11   15   10
  108   1    5    8
  109   2    5   12    4   11
  110   2    5   17   17    3
  111   2    6   15   14    9
  112   1    4   18
  113   2   13    6   21    3
  114   2    4    8   18    3
  115   2    7    8   19    4
  116   1    7   16
  117   2    6    9   34    2
  118   2    6   14    5   12
  119   1   16    6
  120   2   35    2   31    2
